%SETS
JOBS     = 1..2;
MACHINES = 1..10;
SPEED    = 1;

time               = array3d(JOBS,MACHINES,1..SPEED,[81, 57, 61, 93, 16, 17, 11, 84, 80, 88, 98, 81, 51, 80, 20, 67, 22, 95, 56, 47]);
energy             = array3d(JOBS,MACHINES,1..SPEED,[44, 56, 54, 39, 85, 84, 89, 43, 44, 41, 37, 44, 60, 44, 81, 51, 80, 38, 57, 62]);
precedence         = array2d(JOBS,MACHINES,[4,1,8,9,6,0,3,7,5,2,7,5,2,0,6,9,8,1,4,3]);